jobs  (incl. supersource/sink ):	102
RESOURCES
- renewable                 : 2 R
- nonrenewable              : 2 N
- doubly constrained        : 0 D
************************************************************************
PRECEDENCE RELATIONS:
jobnr.    #modes  #successors   successors
1	1	10		2 3 4 6 7 9 10 11 12 14 
2	3	6		31 20 19 18 17 8 
3	3	4		21 20 15 5 
4	3	3		18 16 8 
5	3	8		36 31 30 25 23 22 19 18 
6	3	7		36 24 23 22 21 20 15 
7	3	5		31 29 24 17 13 
8	3	4		36 22 15 13 
9	3	4		24 22 19 13 
10	3	3		24 19 13 
11	3	7		48 36 31 29 23 21 18 
12	3	6		42 30 28 23 21 19 
13	3	8		48 42 32 30 28 27 23 21 
14	3	4		28 24 22 19 
15	3	9		48 37 32 30 29 28 27 26 25 
16	3	9		37 36 35 34 32 30 28 26 24 
17	3	10		48 42 41 37 35 34 33 32 28 26 
18	3	8		41 35 34 32 28 27 26 24 
19	3	8		48 41 37 34 33 32 29 26 
20	3	6		37 32 30 29 27 26 
21	3	3		35 26 25 
22	3	6		44 42 39 37 34 33 
23	3	8		52 49 44 43 41 40 39 37 
24	3	6		54 52 49 44 39 33 
25	3	3		39 34 33 
26	3	5		52 49 44 39 38 
27	3	4		54 52 44 33 
28	3	9		54 50 49 47 46 45 44 43 40 
29	3	7		59 54 49 45 44 43 39 
30	3	5		49 47 46 41 40 
31	3	4		47 46 44 38 
32	3	8		68 54 53 52 50 47 45 43 
33	3	4		53 47 46 38 
34	3	6		57 52 50 49 46 40 
35	3	5		54 49 46 45 40 
36	3	6		61 56 52 50 47 44 
37	3	10		68 61 59 58 57 56 54 53 51 50 
38	3	5		68 59 50 45 43 
39	3	3		50 47 46 
40	3	9		68 65 63 61 59 58 56 53 51 
41	3	5		68 60 58 50 45 
42	3	7		68 65 60 59 56 55 53 
43	3	6		61 58 57 56 55 51 
44	3	7		72 68 62 60 58 57 53 
45	3	7		72 66 65 64 62 57 55 
46	3	7		71 68 64 63 61 58 56 
47	3	3		71 57 51 
48	3	6		72 63 62 61 60 59 
49	3	5		72 66 63 58 53 
50	3	4		66 65 62 55 
51	3	5		72 70 64 62 60 
52	3	5		70 64 62 60 59 
53	3	7		77 76 71 70 69 67 64 
54	3	5		76 72 69 64 62 
55	3	5		77 76 71 69 63 
56	3	5		82 81 72 70 62 
57	3	3		69 67 63 
58	3	5		76 73 70 69 67 
59	3	7		82 81 78 77 76 74 67 
60	3	3		74 69 66 
61	3	7		87 84 83 75 74 73 69 
62	3	5		78 77 74 73 67 
63	3	6		88 84 78 74 73 70 
64	3	9		88 87 84 83 82 80 75 74 73 
65	3	9		100 88 84 83 82 81 80 79 73 
66	3	7		100 87 83 80 76 75 73 
67	3	9		101 98 90 88 87 84 83 80 75 
68	3	8		99 90 87 83 81 80 75 73 
69	3	12		101 100 99 98 96 91 88 85 82 81 80 78 
70	3	7		100 98 90 87 83 80 75 
71	3	7		101 100 90 87 83 80 75 
72	3	9		100 98 91 90 89 86 84 80 79 
73	3	8		101 98 97 96 91 89 86 85 
74	3	6		100 98 96 91 89 79 
75	3	5		96 91 89 86 79 
76	3	8		99 98 97 96 95 93 90 85 
77	3	6		99 97 96 90 85 80 
78	3	3		94 89 86 
79	3	3		97 93 85 
80	3	4		95 94 93 92 
81	3	4		97 95 94 92 
82	3	3		94 93 90 
83	3	3		94 93 92 
84	3	3		99 96 93 
85	3	2		94 92 
86	3	2		93 92 
87	3	2		96 92 
88	3	2		93 92 
89	3	1		95 
90	3	1		92 
91	3	1		93 
92	3	1		102 
93	3	1		102 
94	3	1		102 
95	3	1		102 
96	3	1		102 
97	3	1		102 
98	3	1		102 
99	3	1		102 
100	3	1		102 
101	3	1		102 
102	1	0		
************************************************************************
REQUESTS/DURATIONS
jobnr.	mode	dur	R1	R2	N1	N2	
------------------------------------------------------------------------
1	1	0	0	0	0	0	
2	1	5	4	0	0	7	
	2	10	3	0	9	0	
	3	10	0	1	0	6	
3	1	2	5	0	0	8	
	2	6	0	4	0	4	
	3	7	2	0	2	0	
4	1	3	3	0	0	8	
	2	7	3	0	0	5	
	3	9	3	0	2	0	
5	1	3	0	4	3	0	
	2	5	0	3	0	2	
	3	9	3	0	0	1	
6	1	1	0	5	0	7	
	2	9	2	0	0	4	
	3	10	1	0	6	0	
7	1	6	0	5	0	9	
	2	8	0	3	3	0	
	3	10	4	0	0	8	
8	1	2	4	0	0	8	
	2	4	3	0	2	0	
	3	6	2	0	0	3	
9	1	5	0	4	0	8	
	2	6	2	0	0	8	
	3	7	0	2	0	7	
10	1	8	0	4	0	1	
	2	9	4	0	5	0	
	3	10	4	0	4	0	
11	1	4	5	0	0	4	
	2	5	5	0	0	3	
	3	7	0	2	0	2	
12	1	6	0	4	2	0	
	2	8	0	4	1	0	
	3	10	2	0	2	0	
13	1	6	4	0	8	0	
	2	6	0	2	0	7	
	3	10	0	2	0	6	
14	1	1	4	0	6	0	
	2	5	4	0	4	0	
	3	9	4	0	3	0	
15	1	1	0	1	0	10	
	2	3	0	1	6	0	
	3	6	0	1	5	0	
16	1	3	4	0	0	9	
	2	5	0	4	6	0	
	3	6	0	4	0	8	
17	1	4	2	0	0	7	
	2	7	0	2	4	0	
	3	8	1	0	4	0	
18	1	7	2	0	0	8	
	2	8	2	0	0	7	
	3	10	0	2	0	7	
19	1	3	1	0	5	0	
	2	6	0	2	2	0	
	3	7	0	1	2	0	
20	1	5	5	0	5	0	
	2	7	4	0	0	2	
	3	8	0	3	4	0	
21	1	2	4	0	0	6	
	2	3	4	0	6	0	
	3	6	0	2	4	0	
22	1	1	0	2	8	0	
	2	3	3	0	0	1	
	3	9	0	1	0	1	
23	1	4	0	5	3	0	
	2	8	2	0	2	0	
	3	9	0	5	0	2	
24	1	2	4	0	10	0	
	2	6	0	1	0	4	
	3	7	0	1	6	0	
25	1	6	0	2	9	0	
	2	7	3	0	0	1	
	3	10	3	0	6	0	
26	1	4	0	5	7	0	
	2	4	3	0	0	5	
	3	10	0	3	0	1	
27	1	2	0	3	0	2	
	2	7	1	0	0	1	
	3	10	0	3	4	0	
28	1	2	0	5	7	0	
	2	5	1	0	6	0	
	3	9	1	0	4	0	
29	1	3	0	4	7	0	
	2	4	4	0	7	0	
	3	5	0	4	6	0	
30	1	1	0	3	4	0	
	2	4	2	0	4	0	
	3	8	2	0	3	0	
31	1	5	4	0	5	0	
	2	8	0	1	0	6	
	3	9	3	0	3	0	
32	1	5	0	4	0	2	
	2	9	0	4	7	0	
	3	10	0	2	6	0	
33	1	2	5	0	0	9	
	2	3	0	2	0	5	
	3	10	0	2	1	0	
34	1	6	0	4	0	5	
	2	7	3	0	7	0	
	3	9	3	0	6	0	
35	1	1	0	4	0	7	
	2	8	0	3	7	0	
	3	9	2	0	0	7	
36	1	6	4	0	7	0	
	2	8	0	3	6	0	
	3	10	0	3	0	3	
37	1	4	1	0	0	10	
	2	7	1	0	4	0	
	3	9	1	0	0	6	
38	1	1	0	1	7	0	
	2	1	0	1	0	4	
	3	3	4	0	3	0	
39	1	1	0	3	0	10	
	2	9	3	0	0	10	
	3	9	0	3	0	9	
40	1	5	0	3	9	0	
	2	10	3	0	9	0	
	3	10	0	3	8	0	
41	1	2	0	5	2	0	
	2	4	1	0	0	3	
	3	6	1	0	0	1	
42	1	1	0	5	5	0	
	2	10	0	5	0	9	
	3	10	0	5	3	0	
43	1	1	3	0	3	0	
	2	3	3	0	2	0	
	3	10	3	0	1	0	
44	1	1	4	0	7	0	
	2	3	2	0	7	0	
	3	9	2	0	6	0	
45	1	2	3	0	0	7	
	2	6	0	1	0	6	
	3	9	0	1	0	5	
46	1	5	4	0	5	0	
	2	8	0	3	0	5	
	3	10	0	2	0	4	
47	1	2	0	3	0	7	
	2	3	1	0	0	7	
	3	10	0	1	0	7	
48	1	9	0	2	10	0	
	2	9	1	0	10	0	
	3	10	0	2	0	10	
49	1	2	3	0	0	8	
	2	2	0	2	7	0	
	3	6	1	0	0	6	
50	1	3	4	0	8	0	
	2	7	0	3	0	7	
	3	10	4	0	0	7	
51	1	1	0	5	4	0	
	2	3	3	0	0	2	
	3	7	2	0	4	0	
52	1	3	2	0	0	7	
	2	3	1	0	3	0	
	3	9	1	0	2	0	
53	1	4	0	3	9	0	
	2	5	3	0	0	9	
	3	7	0	3	0	9	
54	1	1	0	3	6	0	
	2	2	0	3	0	2	
	3	7	2	0	6	0	
55	1	4	2	0	0	7	
	2	4	1	0	4	0	
	3	10	0	4	0	7	
56	1	1	0	3	0	10	
	2	2	0	3	0	8	
	3	6	0	2	0	5	
57	1	3	3	0	9	0	
	2	8	0	2	8	0	
	3	10	0	2	0	2	
58	1	1	0	4	0	1	
	2	5	3	0	0	1	
	3	5	2	0	3	0	
59	1	4	0	1	9	0	
	2	8	0	1	0	5	
	3	10	0	1	0	3	
60	1	4	0	4	10	0	
	2	6	1	0	10	0	
	3	9	0	3	10	0	
61	1	4	0	3	9	0	
	2	5	0	2	0	3	
	3	5	0	2	7	0	
62	1	1	0	5	9	0	
	2	4	0	4	5	0	
	3	10	0	4	3	0	
63	1	3	0	4	0	8	
	2	6	0	4	1	0	
	3	10	3	0	0	6	
64	1	2	3	0	8	0	
	2	2	0	3	0	8	
	3	8	0	2	0	8	
65	1	1	0	2	0	6	
	2	3	0	2	0	5	
	3	5	3	0	0	5	
66	1	1	3	0	9	0	
	2	6	0	3	7	0	
	3	7	2	0	0	2	
67	1	6	5	0	5	0	
	2	7	3	0	3	0	
	3	10	0	3	0	6	
68	1	1	0	2	0	8	
	2	2	0	1	2	0	
	3	8	2	0	2	0	
69	1	4	0	5	10	0	
	2	6	1	0	8	0	
	3	8	0	2	4	0	
70	1	7	2	0	0	8	
	2	9	2	0	6	0	
	3	10	2	0	5	0	
71	1	8	0	4	10	0	
	2	9	2	0	9	0	
	3	9	0	2	8	0	
72	1	4	0	4	0	1	
	2	6	1	0	7	0	
	3	7	0	3	0	1	
73	1	2	4	0	0	6	
	2	8	0	3	8	0	
	3	10	0	3	0	6	
74	1	1	0	3	8	0	
	2	4	3	0	6	0	
	3	5	3	0	0	7	
75	1	3	5	0	0	9	
	2	3	0	3	7	0	
	3	7	2	0	7	0	
76	1	1	0	5	0	4	
	2	1	0	4	8	0	
	3	8	1	0	0	4	
77	1	1	1	0	9	0	
	2	4	0	3	9	0	
	3	10	0	3	0	10	
78	1	1	0	5	3	0	
	2	5	0	3	2	0	
	3	6	0	3	1	0	
79	1	2	4	0	6	0	
	2	3	4	0	0	8	
	3	9	3	0	2	0	
80	1	3	0	2	10	0	
	2	5	4	0	0	4	
	3	5	4	0	6	0	
81	1	2	0	3	0	4	
	2	4	2	0	4	0	
	3	10	2	0	0	2	
82	1	1	4	0	0	10	
	2	4	3	0	5	0	
	3	6	3	0	0	8	
83	1	1	0	3	1	0	
	2	3	1	0	0	8	
	3	7	1	0	0	6	
84	1	3	0	2	9	0	
	2	7	0	1	0	8	
	3	7	0	1	5	0	
85	1	1	2	0	9	0	
	2	3	2	0	6	0	
	3	10	0	1	0	2	
86	1	5	4	0	10	0	
	2	7	3	0	8	0	
	3	8	3	0	7	0	
87	1	1	0	5	5	0	
	2	8	0	4	5	0	
	3	9	0	4	4	0	
88	1	1	4	0	6	0	
	2	7	3	0	0	6	
	3	10	0	1	6	0	
89	1	3	0	3	0	9	
	2	8	1	0	0	8	
	3	9	1	0	0	6	
90	1	2	5	0	0	7	
	2	3	4	0	0	6	
	3	3	2	0	7	0	
91	1	2	0	5	4	0	
	2	3	3	0	0	3	
	3	7	0	3	0	1	
92	1	3	4	0	8	0	
	2	4	3	0	0	7	
	3	9	2	0	0	7	
93	1	4	4	0	2	0	
	2	6	0	3	2	0	
	3	9	0	3	1	0	
94	1	1	0	4	0	7	
	2	6	2	0	0	7	
	3	10	2	0	7	0	
95	1	3	2	0	8	0	
	2	6	0	1	0	7	
	3	8	1	0	3	0	
96	1	2	0	4	0	8	
	2	6	4	0	4	0	
	3	7	0	3	3	0	
97	1	1	0	3	4	0	
	2	1	0	1	0	1	
	3	5	0	1	3	0	
98	1	2	0	5	6	0	
	2	2	3	0	6	0	
	3	3	3	0	5	0	
99	1	6	2	0	8	0	
	2	7	2	0	6	0	
	3	9	0	4	0	4	
100	1	1	3	0	0	6	
	2	6	3	0	0	3	
	3	9	0	3	0	3	
101	1	4	3	0	7	0	
	2	7	0	3	5	0	
	3	10	0	3	3	0	
102	1	0	0	0	0	0	
************************************************************************

 RESOURCE AVAILABILITIES 
	R 1	R 2	N 1	N 2
	12	11	318	267

************************************************************************
